unknown
(model
; cardinality of BoundSet is 2
(declare-sort BoundSet 0)
; rep: @uc_BoundSet_0
; rep: @uc_BoundSet_1
(declare-sort UnboundSet 0)
(define-fun b () UnboundSet @uc_UnboundSet_0)
(define-fun c () UnboundSet @uc_UnboundSet_0)
(define-fun e () UnboundSet @uc_UnboundSet_0)
(define-fun d () UnboundSet @uc_UnboundSet_0)
(define-fun a () UnboundSet @uc_UnboundSet_0)
(define-fun IsGiven ((BOUND_VARIABLE_396 BoundSet) (BOUND_VARIABLE_397 UnboundSet)) Bool false)
(define-fun IsInLimbo ((BOUND_VARIABLE_405 UnboundSet)) Bool false)
(define-fun IsInHeaven ((BOUND_VARIABLE_405 UnboundSet)) Bool false)
(define-fun IsLivedLike ((BOUND_VARIABLE_396 BoundSet) (BOUND_VARIABLE_397 UnboundSet)) Bool false)
(define-fun IsGood ((BOUND_VARIABLE_422 BoundSet)) Bool false)
(define-fun IsBeautiful ((BOUND_VARIABLE_405 UnboundSet)) Bool false)
(define-fun IsAPlace ((BOUND_VARIABLE_422 BoundSet)) Bool false)
(define-fun ~IsLiked ((BOUND_VARIABLE_439 BoundSet) (BOUND_VARIABLE_440 BoundSet)) Bool false)
(define-fun IsHappy ((BOUND_VARIABLE_405 UnboundSet)) Bool false)
(define-fun IsWornBy ((BOUND_VARIABLE_405 UnboundSet)) Bool false)
(define-fun IsPartOfFamily ((BOUND_VARIABLE_422 BoundSet)) Bool false)
(define-fun IsDone ((BOUND_VARIABLE_422 BoundSet)) Bool false)
(define-fun IsSpooky ((BOUND_VARIABLE_422 BoundSet)) Bool false)
(define-fun IsMorallyJustifiable ((BOUND_VARIABLE_422 BoundSet)) Bool false)
(define-fun IsTeacher ((BOUND_VARIABLE_422 BoundSet)) Bool false)
(define-fun IsBestClass ((BOUND_VARIABLE_422 BoundSet)) Bool false)
(define-fun IsBest ((BOUND_VARIABLE_422 BoundSet)) Bool false)
(define-fun IsClass ((BOUND_VARIABLE_422 BoundSet)) Bool false)
(define-fun IsBlonde ((BOUND_VARIABLE_405 UnboundSet)) Bool false)
(define-fun IsThere ((BOUND_VARIABLE_405 UnboundSet)) Bool false)
(define-fun IsSale ((BOUND_VARIABLE_405 UnboundSet)) Bool false)
(define-fun ~IsBelieveIn ((BOUND_VARIABLE_405 UnboundSet)) Bool false)
(define-fun IsBurnInHell ((BOUND_VARIABLE_405 UnboundSet)) Bool false)
(define-fun IsForever ((BOUND_VARIABLE_405 UnboundSet)) Bool false)
(define-fun IsGoingToHaveLunch ((BOUND_VARIABLE_439 BoundSet) (BOUND_VARIABLE_440 BoundSet)) Bool false)
(define-fun IsBelieve ((BOUND_VARIABLE_422 BoundSet)) Bool false)
(define-fun IsDitching ((BOUND_VARIABLE_422 BoundSet)) Bool false)
(define-fun IsNew ((BOUND_VARIABLE_422 BoundSet)) Bool false)
(define-fun IsCaught ((BOUND_VARIABLE_396 BoundSet) (BOUND_VARIABLE_397 UnboundSet)) Bool false)
(define-fun IsThrown ((BOUND_VARIABLE_522 UnboundSet) (BOUND_VARIABLE_523 UnboundSet)) Bool false)
(define-fun IsAt ((BOUND_VARIABLE_536 UnboundSet) (BOUND_VARIABLE_537 BoundSet)) Bool false)
(define-fun IsPutting ((BOUND_VARIABLE_439 BoundSet) (BOUND_VARIABLE_440 BoundSet)) Bool false)
(define-fun IsUnder ((BOUND_VARIABLE_439 BoundSet) (BOUND_VARIABLE_440 BoundSet)) Bool false)
(define-fun IsHispanic ((BOUND_VARIABLE_422 BoundSet)) Bool false)
(define-fun WearsRedPlaidShirt ((BOUND_VARIABLE_422 BoundSet)) Bool false)
(define-fun IsWearing ((BOUND_VARIABLE_422 BoundSet)) Bool false)
(define-fun IsSewing ((BOUND_VARIABLE_422 BoundSet)) Bool false)
(define-fun IsAnArticleOfClothing ((BOUND_VARIABLE_422 BoundSet)) Bool false)
(define-fun IsWalkedDown ((BOUND_VARIABLE_396 BoundSet) (BOUND_VARIABLE_397 UnboundSet)) Bool false)
(define-fun IsOutside ((BOUND_VARIABLE_422 BoundSet)) Bool false)
(define-fun IsRunTowards ((BOUND_VARIABLE_439 BoundSet) (BOUND_VARIABLE_440 BoundSet)) Bool true)
)
